
******************************************************************************
This program contains Ipopt, a library for large-scale nonlinear optimization.
 Ipopt is released as open source code under the Eclipse Public License (EPL).
         For more information visit https://github.com/coin-or/Ipopt
******************************************************************************

This is Ipopt version 3.14.19, running with linear solver MUMPS 5.8.1.

Number of nonzeros in equality constraint Jacobian...:     4389
Number of nonzeros in inequality constraint Jacobian.:        0
Number of nonzeros in Lagrangian Hessian.............:     1050

Total number of variables............................:     1287
                     variables with only lower bounds:        0
                variables with lower and upper bounds:      457
                     variables with only upper bounds:        0
Total number of equality constraints.................:     1274
Total number of inequality constraints...............:        0
        inequality constraints with only lower bounds:        0
   inequality constraints with lower and upper bounds:        0
        inequality constraints with only upper bounds:        0

iter    objective    inf_pr   inf_du lg(mu)  ||d||  lg(rg) alpha_du alpha_pr  ls
   0  9.8530985e+00 9.76e+01 2.04e-04  -1.0 0.00e+00    -  0.00e+00 0.00e+00   0
   1  9.9489364e+00 3.57e+01 2.02e+01  -1.0 9.65e+01    -  4.55e-02 1.00e+00h  1
   2  9.9107196e+00 7.73e+00 4.44e-02  -1.0 1.94e+01    -  9.63e-01 1.00e+00h  1
   3  9.8669346e+00 3.65e+00 3.22e-02  -1.0 3.69e+00    -  6.33e-01 6.65e-01h  1
   4  9.8716364e+00 2.95e+00 8.96e-01  -1.0 9.90e+00    -  9.97e-01 4.43e-01h  1
   5  9.8665314e+00 1.19e+00 5.74e-04  -1.0 7.08e+00    -  1.00e+00 1.00e+00h  1
   6  9.8671365e+00 5.84e-02 4.93e-05  -1.0 1.67e+00    -  1.00e+00 1.00e+00h  1
   7  9.8653963e+00 4.65e-01 4.33e-02  -2.5 3.85e+00    -  9.81e-01 1.00e+00h  1
   8  9.8633184e+00 7.81e-01 4.00e-04  -2.5 3.10e+00    -  1.00e+00 1.00e+00h  1
   9  9.8630868e+00 1.90e-02 9.44e-06  -2.5 8.80e-01    -  1.00e+00 1.00e+00h  1
iter    objective    inf_pr   inf_du lg(mu)  ||d||  lg(rg) alpha_du alpha_pr  ls
  10  9.8626044e+00 1.17e-02 1.39e-02  -3.8 3.04e-01    -  8.01e-01 1.00e+00h  1
  11  9.8544615e+00 1.92e-03 3.12e-03  -3.8 3.24e+00    -  4.60e-01 1.00e+00h  1
  12  9.8528098e+00 9.20e-04 1.46e-04  -3.8 8.28e-01    -  1.00e+00 1.00e+00h  1
  13  9.8524184e+00 6.61e-04 2.44e-03  -5.7 6.32e-01    -  6.85e-01 2.77e-01h  1
  14  9.8522616e+00 2.85e-04 2.66e-03  -5.7 1.18e-01    -  1.00e+00 6.21e-01h  1
  15  9.8522675e+00 1.31e-05 1.04e-08  -5.7 9.72e-03    -  1.00e+00 1.00e+00h  1
  16  9.8522637e+00 1.21e-07 1.05e-06  -8.6 1.70e-03    -  1.00e+00 9.91e-01h  1
  17  9.8522637e+00 1.92e-13 6.80e-16  -8.6 1.21e-06    -  1.00e+00 1.00e+00h  1

Number of Iterations....: 17

                                   (scaled)                 (unscaled)
Objective...............:   9.8522637058402491e+00    9.8522637058402491e+00
Dual infeasibility......:   6.8001160258290838e-16    6.8001160258290838e-16
Constraint violation....:   1.9184653867492166e-13    1.9184653867492166e-13
Variable bound violation:   0.0000000000000000e+00    0.0000000000000000e+00
Complementarity.........:   2.5059354064140953e-09    2.5059354064140953e-09
Overall NLP error.......:   2.5059354064140953e-09    2.5059354064140953e-09


Number of objective function evaluations             = 18
Number of objective gradient evaluations             = 18
Number of equality constraint evaluations            = 18
Number of inequality constraint evaluations          = 0
Number of equality constraint Jacobian evaluations   = 18
Number of inequality constraint Jacobian evaluations = 0
Number of Lagrangian Hessian evaluations             = 17
Total seconds in IPOPT                               = 0.082

EXIT: Optimal Solution Found.
